
Gurobi 13.0.2 (win64) logging started Fri Jul 24 09:23:04 2026

Set parameter LogFile to value "E:\codes\ExactEBRP\results\gf_c0_mechanism_transfer_c5_round30\runs\stage2__high_imbalance_seed5203__c5_candidate__300s\external\native_logs\L2.0.0.1.0.0_partial_target_mip.gurobi.log"
Gurobi Optimizer version 13.0.2 build v13.0.2rc1 (win64 - Windows 10.0 (19045.2))

CPU model: 12th Gen Intel(R) Core(TM) i7-12700KF, instruction set [SSE2|AVX|AVX2]
Thread count: 12 physical cores, 20 logical processors, using up to 1 threads

Non-default parameters:
TimeLimit  83.0750773
MIPGap  0
MIPGapAbs  0
LogToConsole  0
Threads  1

Optimize a model with 11922 rows, 3380 columns and 67404 nonzeros (Min)
Model fingerprint: 0x1c356fed
Model has 21 linear objective coefficients
Variable types: 1687 continuous, 1693 integer (1493 binary)
Coefficient statistics:
  Matrix range     [2e-02, 2e+04]
  Objective range  [2e-02, 1e+00]
  Bounds range     [5e-01, 4e+03]
  RHS range        [5e-01, 5e+04]

Presolve removed 1919 rows and 75 columns
Presolve time: 0.18s
Presolved: 10003 rows, 3305 columns, 74819 nonzeros
Variable types: 1639 continuous, 1666 integer (1484 binary)

Root relaxation: objective 2.099451e+00, 3655 iterations, 0.18 seconds (0.44 work units)

    Nodes    |    Current Node    |     Objective Bounds      |     Work
 Expl Unexpl |  Obj  Depth IntInf | Incumbent    BestBd   Gap | It/Node Time

     0     0    2.09945    0  176          -    2.09945      -     -    0s

Explored 1 nodes (3655 simplex iterations) in 0.39 seconds (0.85 work units)
Thread count was 1 (of 20 available processors)

Solution count 0

Solve interrupted
Best objective -, best bound 2.099450670147e+00, gap -

User-callback calls 773, time in user-callback 0.00 sec
